p cnf 378 1312
c weights 1.0 1.0 2.718281828459045 0.36787944117144233 2.718281828459045 0.36787944117144233 2.718281828459045 0.36787944117144233 2.718281828459045 0.36787944117144233 2.718281828459045 0.36787944117144233 2.718281828459045 0.36787944117144233 2.718281828459045 0.36787944117144233 2.718281828459045 0.36787944117144233 2.718281828459045 0.36787944117144233 2.718281828459045 0.36787944117144233 2.718281828459045 0.36787944117144233 2.718281828459045 0.36787944117144233 2.718281828459045 0.36787944117144233 2.718281828459045 0.36787944117144233 2.718281828459045 0.36787944117144233 2.718281828459045 0.36787944117144233 2.718281828459045 0.36787944117144233 2.718281828459045 0.36787944117144233 1.0 1.0 2.718281828459045 0.36787944117144233 2.718281828459045 0.36787944117144233 2.718281828459045 0.36787944117144233 2.718281828459045 0.36787944117144233 2.718281828459045 0.36787944117144233 2.718281828459045 0.36787944117144233 2.718281828459045 0.36787944117144233 2.718281828459045 0.36787944117144233 2.718281828459045 0.36787944117144233 2.718281828459045 0.36787944117144233 1.0 1.0 2.718281828459045 0.36787944117144233 2.718281828459045 0.36787944117144233 2.718281828459045 0.36787944117144233 2.718281828459045 0.36787944117144233 2.718281828459045 0.36787944117144233 2.718281828459045 0.36787944117144233 2.718281828459045 0.36787944117144233 2.718281828459045 0.36787944117144233 2.718281828459045 0.36787944117144233 2.718281828459045 0.36787944117144233 2.718281828459045 0.36787944117144233 2.718281828459045 0.36787944117144233 2.718281828459045 0.36787944117144233 2.718281828459045 0.36787944117144233 1.0 1.0 2.718281828459045 0.36787944117144233 2.718281828459045 0.36787944117144233 2.718281828459045 0.36787944117144233 2.718281828459045 0.36787944117144233 2.718281828459045 0.36787944117144233 2.718281828459045 0.36787944117144233 2.718281828459045 0.36787944117144233 2.718281828459045 0.36787944117144233 2.718281828459045 0.36787944117144233 2.718281828459045 0.36787944117144233 2.718281828459045 0.36787944117144233 2.718281828459045 0.36787944117144233 2.718281828459045 0.36787944117144233 1.0 1.0 2.718281828459045 0.36787944117144233 2.718281828459045 0.36787944117144233 2.718281828459045 0.36787944117144233 2.718281828459045 0.36787944117144233 2.718281828459045 0.36787944117144233 2.718281828459045 0.36787944117144233 2.718281828459045 0.36787944117144233 2.718281828459045 0.36787944117144233 2.718281828459045 0.36787944117144233 2.718281828459045 0.36787944117144233 2.718281828459045 0.36787944117144233 1.0 1.0 2.718281828459045 0.36787944117144233 2.718281828459045 0.36787944117144233 2.718281828459045 0.36787944117144233 2.718281828459045 0.36787944117144233 2.718281828459045 0.36787944117144233 2.718281828459045 0.36787944117144233 2.718281828459045 0.36787944117144233 2.718281828459045 0.36787944117144233 2.718281828459045 0.36787944117144233 2.718281828459045 0.36787944117144233 2.718281828459045 0.36787944117144233 1.0 1.0 2.718281828459045 0.36787944117144233 2.718281828459045 0.36787944117144233 2.718281828459045 0.36787944117144233 2.718281828459045 0.36787944117144233 1.0 1.0 2.718281828459045 0.36787944117144233 2.718281828459045 0.36787944117144233 2.718281828459045 0.36787944117144233 2.718281828459045 0.36787944117144233 2.718281828459045 0.36787944117144233 2.718281828459045 0.36787944117144233 2.718281828459045 0.36787944117144233 2.718281828459045 0.36787944117144233 2.718281828459045 0.36787944117144233 2.718281828459045 0.36787944117144233 2.718281828459045 0.36787944117144233 2.718281828459045 0.36787944117144233 2.718281828459045 0.36787944117144233 2.718281828459045 0.36787944117144233 2.718281828459045 0.36787944117144233 1.0 1.0 2.718281828459045 0.36787944117144233 2.718281828459045 0.36787944117144233 2.718281828459045 0.36787944117144233 2.718281828459045 0.36787944117144233 2.718281828459045 0.36787944117144233 2.718281828459045 0.36787944117144233 2.718281828459045 0.36787944117144233 2.718281828459045 0.36787944117144233 2.718281828459045 0.36787944117144233 2.718281828459045 0.36787944117144233 2.718281828459045 0.36787944117144233 2.718281828459045 0.36787944117144233 2.718281828459045 0.36787944117144233 2.718281828459045 0.36787944117144233 2.718281828459045 0.36787944117144233 2.718281828459045 0.36787944117144233 2.718281828459045 0.36787944117144233 1.0 1.0 2.718281828459045 0.36787944117144233 2.718281828459045 0.36787944117144233 2.718281828459045 0.36787944117144233 2.718281828459045 0.36787944117144233 2.718281828459045 0.36787944117144233 2.718281828459045 0.36787944117144233 2.718281828459045 0.36787944117144233 2.718281828459045 0.36787944117144233 2.718281828459045 0.36787944117144233 2.718281828459045 0.36787944117144233 2.718281828459045 0.36787944117144233 1.0 1.0 2.718281828459045 0.36787944117144233 2.718281828459045 0.36787944117144233 2.718281828459045 0.36787944117144233 2.718281828459045 0.36787944117144233 2.718281828459045 0.36787944117144233 2.718281828459045 0.36787944117144233 2.718281828459045 0.36787944117144233 2.718281828459045 0.36787944117144233 1.0 1.0 2.718281828459045 0.36787944117144233 2.718281828459045 0.36787944117144233 2.718281828459045 0.36787944117144233 2.718281828459045 0.36787944117144233 2.718281828459045 0.36787944117144233 2.718281828459045 0.36787944117144233 2.718281828459045 0.36787944117144233 2.718281828459045 0.36787944117144233 2.718281828459045 0.36787944117144233 2.718281828459045 0.36787944117144233 2.718281828459045 0.36787944117144233 1.0 1.0 2.718281828459045 0.36787944117144233 2.718281828459045 0.36787944117144233 2.718281828459045 0.36787944117144233 2.718281828459045 0.36787944117144233 2.718281828459045 0.36787944117144233 2.718281828459045 0.36787944117144233 2.718281828459045 0.36787944117144233 2.718281828459045 0.36787944117144233 2.718281828459045 0.36787944117144233 2.718281828459045 0.36787944117144233 2.718281828459045 0.36787944117144233 1.0 1.0 2.718281828459045 0.36787944117144233 2.718281828459045 0.36787944117144233 2.718281828459045 0.36787944117144233 2.718281828459045 0.36787944117144233 2.718281828459045 0.36787944117144233 1.0 1.0 2.718281828459045 0.36787944117144233 2.718281828459045 0.36787944117144233 2.718281828459045 0.36787944117144233 2.718281828459045 0.36787944117144233 2.718281828459045 0.36787944117144233 2.718281828459045 0.36787944117144233 2.718281828459045 0.36787944117144233 2.718281828459045 0.36787944117144233 2.718281828459045 0.36787944117144233 2.718281828459045 0.36787944117144233 2.718281828459045 0.36787944117144233 2.718281828459045 0.36787944117144233 1.0 1.0 2.718281828459045 0.36787944117144233 2.718281828459045 0.36787944117144233 2.718281828459045 0.36787944117144233 2.718281828459045 0.36787944117144233 2.718281828459045 0.36787944117144233 2.718281828459045 0.36787944117144233 2.718281828459045 0.36787944117144233 1.0 1.0 2.718281828459045 0.36787944117144233 2.718281828459045 0.36787944117144233 2.718281828459045 0.36787944117144233 2.718281828459045 0.36787944117144233 2.718281828459045 0.36787944117144233 2.718281828459045 0.36787944117144233 2.718281828459045 0.36787944117144233 2.718281828459045 0.36787944117144233 1.0 1.0 2.718281828459045 0.36787944117144233 2.718281828459045 0.36787944117144233 2.718281828459045 0.36787944117144233 2.718281828459045 0.36787944117144233 2.718281828459045 0.36787944117144233 2.718281828459045 0.36787944117144233 2.718281828459045 0.36787944117144233 2.718281828459045 0.36787944117144233 2.718281828459045 0.36787944117144233 2.718281828459045 0.36787944117144233 1.0 1.0 2.718281828459045 0.36787944117144233 2.718281828459045 0.36787944117144233 2.718281828459045 0.36787944117144233 2.718281828459045 0.36787944117144233 2.718281828459045 0.36787944117144233 2.718281828459045 0.36787944117144233 2.718281828459045 0.36787944117144233 2.718281828459045 0.36787944117144233 2.718281828459045 0.36787944117144233 2.718281828459045 0.36787944117144233 2.718281828459045 0.36787944117144233 2.718281828459045 0.36787944117144233 1.0 1.0 2.718281828459045 0.36787944117144233 2.718281828459045 0.36787944117144233 2.718281828459045 0.36787944117144233 2.718281828459045 0.36787944117144233 2.718281828459045 0.36787944117144233 2.718281828459045 0.36787944117144233 2.718281828459045 0.36787944117144233 2.718281828459045 0.36787944117144233 2.718281828459045 0.36787944117144233 1.0 1.0 2.718281828459045 0.36787944117144233 2.718281828459045 0.36787944117144233 2.718281828459045 0.36787944117144233 2.718281828459045 0.36787944117144233 2.718281828459045 0.36787944117144233 2.718281828459045 0.36787944117144233 1.0 1.0 2.718281828459045 0.36787944117144233 2.718281828459045 0.36787944117144233 2.718281828459045 0.36787944117144233 2.718281828459045 0.36787944117144233 2.718281828459045 0.36787944117144233 2.718281828459045 0.36787944117144233 1.0 1.0 2.718281828459045 0.36787944117144233 2.718281828459045 0.36787944117144233 2.718281828459045 0.36787944117144233 2.718281828459045 0.36787944117144233 2.718281828459045 0.36787944117144233 2.718281828459045 0.36787944117144233 1.0 1.0 2.718281828459045 0.36787944117144233 2.718281828459045 0.36787944117144233 2.718281828459045 0.36787944117144233 2.718281828459045 0.36787944117144233 1.0 1.0 2.718281828459045 0.36787944117144233 2.718281828459045 0.36787944117144233 2.718281828459045 0.36787944117144233 2.718281828459045 0.36787944117144233 2.718281828459045 0.36787944117144233 2.718281828459045 0.36787944117144233 1.0 1.0 2.718281828459045 0.36787944117144233 2.718281828459045 0.36787944117144233 2.718281828459045 0.36787944117144233 2.718281828459045 0.36787944117144233 1.0 1.0 2.718281828459045 0.36787944117144233 2.718281828459045 0.36787944117144233 2.718281828459045 0.36787944117144233 2.718281828459045 0.36787944117144233 2.718281828459045 0.36787944117144233 2.718281828459045 0.36787944117144233 2.718281828459045 0.36787944117144233 2.718281828459045 0.36787944117144233 1.0 1.0 2.718281828459045 0.36787944117144233 2.718281828459045 0.36787944117144233 2.718281828459045 0.36787944117144233 2.718281828459045 0.36787944117144233 2.718281828459045 0.36787944117144233 2.718281828459045 0.36787944117144233 1.0 1.0 2.718281828459045 0.36787944117144233 2.718281828459045 0.36787944117144233 2.718281828459045 0.36787944117144233 1.0 1.0 2.718281828459045 0.36787944117144233 2.718281828459045 0.36787944117144233 2.718281828459045 0.36787944117144233 1.0 1.0 2.718281828459045 0.36787944117144233 2.718281828459045 0.36787944117144233 2.718281828459045 0.36787944117144233 2.718281828459045 0.36787944117144233 2.718281828459045 0.36787944117144233 2.718281828459045 0.36787944117144233 2.718281828459045 0.36787944117144233 2.718281828459045 0.36787944117144233 1.0 1.0 2.718281828459045 0.36787944117144233 2.718281828459045 0.36787944117144233 2.718281828459045 0.36787944117144233 2.718281828459045 0.36787944117144233 2.718281828459045 0.36787944117144233 2.718281828459045 0.36787944117144233 2.718281828459045 0.36787944117144233 2.718281828459045 0.36787944117144233 2.718281828459045 0.36787944117144233 2.718281828459045 0.36787944117144233 2.718281828459045 0.36787944117144233 1.0 1.0 2.718281828459045 0.36787944117144233 2.718281828459045 0.36787944117144233 2.718281828459045 0.36787944117144233 2.718281828459045 0.36787944117144233 2.718281828459045 0.36787944117144233 2.718281828459045 0.36787944117144233 1.0 1.0 2.718281828459045 0.36787944117144233 2.718281828459045 0.36787944117144233 2.718281828459045 0.36787944117144233 2.718281828459045 0.36787944117144233 1.0 1.0 2.718281828459045 0.36787944117144233 2.718281828459045 0.36787944117144233 2.718281828459045 0.36787944117144233 2.718281828459045 0.36787944117144233 2.718281828459045 0.36787944117144233 1.0 1.0 2.718281828459045 0.36787944117144233 2.718281828459045 0.36787944117144233 2.718281828459045 0.36787944117144233 1.0 1.0 2.718281828459045 0.36787944117144233 2.718281828459045 0.36787944117144233 1.0 1.0 2.718281828459045 0.36787944117144233 2.718281828459045 0.36787944117144233 2.718281828459045 0.36787944117144233 1.0 1.0 2.718281828459045 0.36787944117144233 2.718281828459045 0.36787944117144233 2.718281828459045 0.36787944117144233 1.0 1.0 2.718281828459045 0.36787944117144233 2.718281828459045 0.36787944117144233 1.0 1.0 2.718281828459045 0.36787944117144233 2.718281828459045 0.36787944117144233 1.0 1.0 2.718281828459045 0.36787944117144233 1.0 1.0 2.718281828459045 0.36787944117144233 2.718281828459045 0.36787944117144233 1.0 1.0 2.718281828459045 0.36787944117144233 1.0 1.0 2.718281828459045 0.36787944117144233 2.718281828459045 0.36787944117144233 1.0 1.0 2.718281828459045 0.36787944117144233 2.718281828459045 0.36787944117144233 1.0 1.0 2.718281828459045 0.36787944117144233 1.0 1.0 2.718281828459045 0.36787944117144233 1.0 1.0 1.0 1.0
2 1 20 0
2 -1 -20 0
-2 1 -20 0
-2 -1 20 0
3 1 46 0
3 -1 -46 0
-3 1 -46 0
-3 -1 46 0
4 1 89 0
4 -1 -89 0
-4 1 -89 0
-4 -1 89 0
5 1 135 0
5 -1 -135 0
-5 1 -135 0
-5 -1 135 0
6 1 195 0
6 -1 -195 0
-6 1 -195 0
-6 -1 195 0
7 1 228 0
7 -1 -228 0
-7 1 -228 0
-7 -1 228 0
8 1 238 0
8 -1 -238 0
-8 1 -238 0
-8 -1 238 0
9 1 252 0
9 -1 -252 0
-9 1 -252 0
-9 -1 252 0
10 1 259 0
10 -1 -259 0
-10 1 -259 0
-10 -1 259 0
11 1 276 0
11 -1 -276 0
-11 1 -276 0
-11 -1 276 0
12 1 309 0
12 -1 -309 0
-12 1 -309 0
-12 -1 309 0
13 1 321 0
13 -1 -321 0
-13 1 -321 0
-13 -1 321 0
14 1 339 0
14 -1 -339 0
-14 1 -339 0
-14 -1 339 0
15 1 354 0
15 -1 -354 0
-15 1 -354 0
-15 -1 354 0
16 1 357 0
16 -1 -357 0
-16 1 -357 0
-16 -1 357 0
17 1 370 0
17 -1 -370 0
-17 1 -370 0
-17 -1 370 0
18 1 373 0
18 -1 -373 0
-18 1 -373 0
-18 -1 373 0
19 1 377 0
19 -1 -377 0
-19 1 -377 0
-19 -1 377 0
21 20 72 0
21 -20 -72 0
-21 20 -72 0
-21 -20 72 0
22 20 187 0
22 -20 -187 0
-22 20 -187 0
-22 -20 187 0
23 20 215 0
23 -20 -215 0
-23 20 -215 0
-23 -20 215 0
24 20 238 0
24 -20 -238 0
-24 20 -238 0
-24 -20 238 0
25 20 252 0
25 -20 -252 0
-25 20 -252 0
-25 -20 252 0
26 20 343 0
26 -20 -343 0
-26 20 -343 0
-26 -20 343 0
27 20 350 0
27 -20 -350 0
-27 20 -350 0
-27 -20 350 0
28 20 354 0
28 -20 -354 0
-28 20 -354 0
-28 -20 354 0
29 20 365 0
29 -20 -365 0
-29 20 -365 0
-29 -20 365 0
30 20 370 0
30 -20 -370 0
-30 20 -370 0
-30 -20 370 0
32 31 46 0
32 -31 -46 0
-32 31 -46 0
-32 -31 46 0
33 31 60 0
33 -31 -60 0
-33 31 -60 0
-33 -31 60 0
34 31 105 0
34 -31 -105 0
-34 31 -105 0
-34 -31 105 0
35 31 123 0
35 -31 -123 0
-35 31 -123 0
-35 -31 123 0
36 31 135 0
36 -31 -135 0
-36 31 -135 0
-36 -31 135 0
37 31 144 0
37 -31 -144 0
-37 31 -144 0
-37 -31 144 0
38 31 228 0
38 -31 -228 0
-38 31 -228 0
-38 -31 228 0
39 31 259 0
39 -31 -259 0
-39 31 -259 0
-39 -31 259 0
40 31 264 0
40 -31 -264 0
-40 31 -264 0
-40 -31 264 0
41 31 292 0
41 -31 -292 0
-41 31 -292 0
-41 -31 292 0
42 31 328 0
42 -31 -328 0
-42 31 -328 0
-42 -31 328 0
43 31 350 0
43 -31 -350 0
-43 31 -350 0
-43 -31 350 0
44 31 373 0
44 -31 -373 0
-44 31 -373 0
-44 -31 373 0
45 31 377 0
45 -31 -377 0
-45 31 -377 0
-45 -31 377 0
47 46 60 0
47 -46 -60 0
-47 46 -60 0
-47 -46 60 0
48 46 105 0
48 -46 -105 0
-48 46 -105 0
-48 -46 105 0
49 46 123 0
49 -46 -123 0
-49 46 -123 0
-49 -46 123 0
50 46 135 0
50 -46 -135 0
-50 46 -135 0
-50 -46 135 0
51 46 195 0
51 -46 -195 0
-51 46 -195 0
-51 -46 195 0
52 46 228 0
52 -46 -228 0
-52 46 -228 0
-52 -46 228 0
53 46 238 0
53 -46 -238 0
-53 46 -238 0
-53 -46 238 0
54 46 321 0
54 -46 -321 0
-54 46 -321 0
-54 -46 321 0
55 46 328 0
55 -46 -328 0
-55 46 -328 0
-55 -46 328 0
56 46 333 0
56 -46 -333 0
-56 46 -333 0
-56 -46 333 0
57 46 350 0
57 -46 -350 0
-57 46 -350 0
-57 -46 350 0
58 46 367 0
58 -46 -367 0
-58 46 -367 0
-58 -46 367 0
59 46 370 0
59 -46 -370 0
-59 46 -370 0
-59 -46 370 0
61 60 72 0
61 -60 -72 0
-61 60 -72 0
-61 -60 72 0
62 60 84 0
62 -60 -84 0
-62 60 -84 0
-62 -60 84 0
63 60 89 0
63 -60 -89 0
-63 60 -89 0
-63 -60 89 0
64 60 123 0
64 -60 -123 0
-64 60 -123 0
-64 -60 123 0
65 60 238 0
65 -60 -238 0
-65 60 -238 0
-65 -60 238 0
66 60 252 0
66 -60 -252 0
-66 60 -252 0
-66 -60 252 0
67 60 321 0
67 -60 -321 0
-67 60 -321 0
-67 -60 321 0
68 60 328 0
68 -60 -328 0
-68 60 -328 0
-68 -60 328 0
69 60 360 0
69 -60 -360 0
-69 60 -360 0
-69 -60 360 0
70 60 365 0
70 -60 -365 0
-70 60 -365 0
-70 -60 365 0
71 60 370 0
71 -60 -370 0
-71 60 -370 0
-71 -60 370 0
73 72 168 0
73 -72 -168 0
-73 72 -168 0
-73 -72 168 0
74 72 174 0
74 -72 -174 0
-74 72 -174 0
-74 -72 174 0
75 72 238 0
75 -72 -238 0
-75 72 -238 0
-75 -72 238 0
76 72 259 0
76 -72 -259 0
-76 72 -259 0
-76 -72 259 0
77 72 271 0
77 -72 -271 0
-77 72 -271 0
-77 -72 271 0
78 72 285 0
78 -72 -285 0
-78 72 -285 0
-78 -72 285 0
79 72 321 0
79 -72 -321 0
-79 72 -321 0
-79 -72 321 0
80 72 357 0
80 -72 -357 0
-80 72 -357 0
-80 -72 357 0
81 72 375 0
81 -72 -375 0
-81 72 -375 0
-81 -72 375 0
82 72 377 0
82 -72 -377 0
-82 72 -377 0
-82 -72 377 0
83 72 378 0
83 -72 -378 0
-83 72 -378 0
-83 -72 378 0
85 84 195 0
85 -84 -195 0
-85 84 -195 0
-85 -84 195 0
86 84 285 0
86 -84 -285 0
-86 84 -285 0
-86 -84 285 0
87 84 333 0
87 -84 -333 0
-87 84 -333 0
-87 -84 333 0
88 84 362 0
88 -84 -362 0
-88 84 -362 0
-88 -84 362 0
90 89 123 0
90 -89 -123 0
-90 89 -123 0
-90 -89 123 0
91 89 168 0
91 -89 -168 0
-91 89 -168 0
-91 -89 168 0
92 89 195 0
92 -89 -195 0
-92 89 -195 0
-92 -89 195 0
93 89 238 0
93 -89 -238 0
-93 89 -238 0
-93 -89 238 0
94 89 252 0
94 -89 -252 0
-94 89 -252 0
-94 -89 252 0
95 89 259 0
95 -89 -259 0
-95 89 -259 0
-95 -89 259 0
96 89 264 0
96 -89 -264 0
-96 89 -264 0
-96 -89 264 0
97 89 271 0
97 -89 -271 0
-97 89 -271 0
-97 -89 271 0
98 89 296 0
98 -89 -296 0
-98 89 -296 0
-98 -89 296 0
99 89 328 0
99 -89 -328 0
-99 89 -328 0
-99 -89 328 0
100 89 362 0
100 -89 -362 0
-100 89 -362 0
-100 -89 362 0
101 89 367 0
101 -89 -367 0
-101 89 -367 0
-101 -89 367 0
102 89 370 0
102 -89 -370 0
-102 89 -370 0
-102 -89 370 0
103 89 373 0
103 -89 -373 0
-103 89 -373 0
-103 -89 373 0
104 89 377 0
104 -89 -377 0
-104 89 -377 0
-104 -89 377 0
106 105 123 0
106 -105 -123 0
-106 105 -123 0
-106 -105 123 0
107 105 135 0
107 -105 -135 0
-107 105 -135 0
-107 -105 135 0
108 105 144 0
108 -105 -144 0
-108 105 -144 0
-108 -105 144 0
109 105 156 0
109 -105 -156 0
-109 105 -156 0
-109 -105 156 0
110 105 187 0
110 -105 -187 0
-110 105 -187 0
-110 -105 187 0
111 105 195 0
111 -105 -195 0
-111 105 -195 0
-111 -105 195 0
112 105 228 0
112 -105 -228 0
-112 105 -228 0
-112 -105 228 0
113 105 238 0
113 -105 -238 0
-113 105 -238 0
-113 -105 238 0
114 105 259 0
114 -105 -259 0
-114 105 -259 0
-114 -105 259 0
115 105 276 0
115 -105 -276 0
-115 105 -276 0
-115 -105 276 0
116 105 292 0
116 -105 -292 0
-116 105 -292 0
-116 -105 292 0
117 105 309 0
117 -105 -309 0
-117 105 -309 0
-117 -105 309 0
118 105 343 0
118 -105 -343 0
-118 105 -343 0
-118 -105 343 0
119 105 346 0
119 -105 -346 0
-119 105 -346 0
-119 -105 346 0
120 105 370 0
120 -105 -370 0
-120 105 -370 0
-120 -105 370 0
121 105 373 0
121 -105 -373 0
-121 105 -373 0
-121 -105 373 0
122 105 375 0
122 -105 -375 0
-122 105 -375 0
-122 -105 375 0
124 123 135 0
124 -123 -135 0
-124 123 -135 0
-124 -123 135 0
125 123 204 0
125 -123 -204 0
-125 123 -204 0
-125 -123 204 0
126 123 264 0
126 -123 -264 0
-126 123 -264 0
-126 -123 264 0
127 123 296 0
127 -123 -296 0
-127 123 -296 0
-127 -123 296 0
128 123 309 0
128 -123 -309 0
-128 123 -309 0
-128 -123 309 0
129 123 346 0
129 -123 -346 0
-129 123 -346 0
-129 -123 346 0
130 123 350 0
130 -123 -350 0
-130 123 -350 0
-130 -123 350 0
131 123 360 0
131 -123 -360 0
-131 123 -360 0
-131 -123 360 0
132 123 365 0
132 -123 -365 0
-132 123 -365 0
-132 -123 365 0
133 123 373 0
133 -123 -373 0
-133 123 -373 0
-133 -123 373 0
134 123 375 0
134 -123 -375 0
-134 123 -375 0
-134 -123 375 0
136 135 144 0
136 -135 -144 0
-136 135 -144 0
-136 -135 144 0
137 135 195 0
137 -135 -195 0
-137 135 -195 0
-137 -135 195 0
138 135 204 0
138 -135 -204 0
-138 135 -204 0
-138 -135 204 0
139 135 238 0
139 -135 -238 0
-139 135 -238 0
-139 -135 238 0
140 135 259 0
140 -135 -259 0
-140 135 -259 0
-140 -135 259 0
141 135 328 0
141 -135 -328 0
-141 135 -328 0
-141 -135 328 0
142 135 339 0
142 -135 -339 0
-142 135 -339 0
-142 -135 339 0
143 135 354 0
143 -135 -354 0
-143 135 -354 0
-143 -135 354 0
145 144 156 0
145 -144 -156 0
-145 144 -156 0
-145 -144 156 0
146 144 228 0
146 -144 -228 0
-146 144 -228 0
-146 -144 228 0
147 144 252 0
147 -144 -252 0
-147 144 -252 0
-147 -144 252 0
148 144 292 0
148 -144 -292 0
-148 144 -292 0
-148 -144 292 0
149 144 321 0
149 -144 -321 0
-149 144 -321 0
-149 -144 321 0
150 144 328 0
150 -144 -328 0
-150 144 -328 0
-150 -144 328 0
151 144 333 0
151 -144 -333 0
-151 144 -333 0
-151 -144 333 0
152 144 360 0
152 -144 -360 0
-152 144 -360 0
-152 -144 360 0
153 144 362 0
153 -144 -362 0
-153 144 -362 0
-153 -144 362 0
154 144 365 0
154 -144 -365 0
-154 144 -365 0
-154 -144 365 0
155 144 377 0
155 -144 -377 0
-155 144 -377 0
-155 -144 377 0
157 156 174 0
157 -156 -174 0
-157 156 -174 0
-157 -156 174 0
158 156 259 0
158 -156 -259 0
-158 156 -259 0
-158 -156 259 0
159 156 285 0
159 -156 -285 0
-159 156 -285 0
-159 -156 285 0
160 156 296 0
160 -156 -296 0
-160 156 -296 0
-160 -156 296 0
161 156 300 0
161 -156 -300 0
-161 156 -300 0
-161 -156 300 0
162 156 321 0
162 -156 -321 0
-162 156 -321 0
-162 -156 321 0
163 156 346 0
163 -156 -346 0
-163 156 -346 0
-163 -156 346 0
164 156 362 0
164 -156 -362 0
-164 156 -362 0
-164 -156 362 0
165 156 367 0
165 -156 -367 0
-165 156 -367 0
-165 -156 367 0
166 156 373 0
166 -156 -373 0
-166 156 -373 0
-166 -156 373 0
167 156 375 0
167 -156 -375 0
-167 156 -375 0
-167 -156 375 0
169 168 252 0
169 -168 -252 0
-169 168 -252 0
-169 -168 252 0
170 168 285 0
170 -168 -285 0
-170 168 -285 0
-170 -168 285 0
171 168 343 0
171 -168 -343 0
-171 168 -343 0
-171 -168 343 0
172 168 346 0
172 -168 -346 0
-172 168 -346 0
-172 -168 346 0
173 168 350 0
173 -168 -350 0
-173 168 -350 0
-173 -168 350 0
175 174 204 0
175 -174 -204 0
-175 174 -204 0
-175 -174 204 0
176 174 215 0
176 -174 -215 0
-176 174 -215 0
-176 -174 215 0
177 174 228 0
177 -174 -228 0
-177 174 -228 0
-177 -174 228 0
178 174 238 0
178 -174 -238 0
-178 174 -238 0
-178 -174 238 0
179 174 259 0
179 -174 -259 0
-179 174 -259 0
-179 -174 259 0
180 174 276 0
180 -174 -276 0
-180 174 -276 0
-180 -174 276 0
181 174 285 0
181 -174 -285 0
-181 174 -285 0
-181 -174 285 0
182 174 321 0
182 -174 -321 0
-182 174 -321 0
-182 -174 321 0
183 174 328 0
183 -174 -328 0
-183 174 -328 0
-183 -174 328 0
184 174 354 0
184 -174 -354 0
-184 174 -354 0
-184 -174 354 0
185 174 375 0
185 -174 -375 0
-185 174 -375 0
-185 -174 375 0
186 174 378 0
186 -174 -378 0
-186 174 -378 0
-186 -174 378 0
188 187 259 0
188 -187 -259 0
-188 187 -259 0
-188 -187 259 0
189 187 271 0
189 -187 -271 0
-189 187 -271 0
-189 -187 271 0
190 187 321 0
190 -187 -321 0
-190 187 -321 0
-190 -187 321 0
191 187 339 0
191 -187 -339 0
-191 187 -339 0
-191 -187 339 0
192 187 370 0
192 -187 -370 0
-192 187 -370 0
-192 -187 370 0
193 187 375 0
193 -187 -375 0
-193 187 -375 0
-193 -187 375 0
194 187 377 0
194 -187 -377 0
-194 187 -377 0
-194 -187 377 0
196 195 204 0
196 -195 -204 0
-196 195 -204 0
-196 -195 204 0
197 195 245 0
197 -195 -245 0
-197 195 -245 0
-197 -195 245 0
198 195 252 0
198 -195 -252 0
-198 195 -252 0
-198 -195 252 0
199 195 285 0
199 -195 -285 0
-199 195 -285 0
-199 -195 285 0
200 195 309 0
200 -195 -309 0
-200 195 -309 0
-200 -195 309 0
201 195 346 0
201 -195 -346 0
-201 195 -346 0
-201 -195 346 0
202 195 360 0
202 -195 -360 0
-202 195 -360 0
-202 -195 360 0
203 195 375 0
203 -195 -375 0
-203 195 -375 0
-203 -195 375 0
205 204 245 0
205 -204 -245 0
-205 204 -245 0
-205 -204 245 0
206 204 276 0
206 -204 -276 0
-206 204 -276 0
-206 -204 276 0
207 204 333 0
207 -204 -333 0
-207 204 -333 0
-207 -204 333 0
208 204 346 0
208 -204 -346 0
-208 204 -346 0
-208 -204 346 0
209 204 350 0
209 -204 -350 0
-209 204 -350 0
-209 -204 350 0
210 204 354 0
210 -204 -354 0
-210 204 -354 0
-210 -204 354 0
211 204 362 0
211 -204 -362 0
-211 204 -362 0
-211 -204 362 0
212 204 365 0
212 -204 -365 0
-212 204 -365 0
-212 -204 365 0
213 204 375 0
213 -204 -375 0
-213 204 -375 0
-213 -204 375 0
214 204 378 0
214 -204 -378 0
-214 204 -378 0
-214 -204 378 0
216 215 238 0
216 -215 -238 0
-216 215 -238 0
-216 -215 238 0
217 215 245 0
217 -215 -245 0
-217 215 -245 0
-217 -215 245 0
218 215 264 0
218 -215 -264 0
-218 215 -264 0
-218 -215 264 0
219 215 276 0
219 -215 -276 0
-219 215 -276 0
-219 -215 276 0
220 215 292 0
220 -215 -292 0
-220 215 -292 0
-220 -215 292 0
221 215 321 0
221 -215 -321 0
-221 215 -321 0
-221 -215 321 0
222 215 333 0
222 -215 -333 0
-222 215 -333 0
-222 -215 333 0
223 215 343 0
223 -215 -343 0
-223 215 -343 0
-223 -215 343 0
224 215 346 0
224 -215 -346 0
-224 215 -346 0
-224 -215 346 0
225 215 360 0
225 -215 -360 0
-225 215 -360 0
-225 -215 360 0
226 215 370 0
226 -215 -370 0
-226 215 -370 0
-226 -215 370 0
227 215 377 0
227 -215 -377 0
-227 215 -377 0
-227 -215 377 0
229 228 245 0
229 -228 -245 0
-229 228 -245 0
-229 -228 245 0
230 228 276 0
230 -228 -276 0
-230 228 -276 0
-230 -228 276 0
231 228 300 0
231 -228 -300 0
-231 228 -300 0
-231 -228 300 0
232 228 309 0
232 -228 -309 0
-232 228 -309 0
-232 -228 309 0
233 228 321 0
233 -228 -321 0
-233 228 -321 0
-233 -228 321 0
234 228 343 0
234 -228 -343 0
-234 228 -343 0
-234 -228 343 0
235 228 365 0
235 -228 -365 0
-235 228 -365 0
-235 -228 365 0
236 228 373 0
236 -228 -373 0
-236 228 -373 0
-236 -228 373 0
237 228 375 0
237 -228 -375 0
-237 228 -375 0
-237 -228 375 0
239 238 245 0
239 -238 -245 0
-239 238 -245 0
-239 -238 245 0
240 238 296 0
240 -238 -296 0
-240 238 -296 0
-240 -238 296 0
241 238 365 0
241 -238 -365 0
-241 238 -365 0
-241 -238 365 0
242 238 370 0
242 -238 -370 0
-242 238 -370 0
-242 -238 370 0
243 238 373 0
243 -238 -373 0
-243 238 -373 0
-243 -238 373 0
244 238 375 0
244 -238 -375 0
-244 238 -375 0
-244 -238 375 0
246 245 252 0
246 -245 -252 0
-246 245 -252 0
-246 -245 252 0
247 245 276 0
247 -245 -276 0
-247 245 -276 0
-247 -245 276 0
248 245 339 0
248 -245 -339 0
-248 245 -339 0
-248 -245 339 0
249 245 346 0
249 -245 -346 0
-249 245 -346 0
-249 -245 346 0
250 245 357 0
250 -245 -357 0
-250 245 -357 0
-250 -245 357 0
251 245 365 0
251 -245 -365 0
-251 245 -365 0
-251 -245 365 0
253 252 300 0
253 -252 -300 0
-253 252 -300 0
-253 -252 300 0
254 252 309 0
254 -252 -309 0
-254 252 -309 0
-254 -252 309 0
255 252 321 0
255 -252 -321 0
-255 252 -321 0
-255 -252 321 0
256 252 328 0
256 -252 -328 0
-256 252 -328 0
-256 -252 328 0
257 252 333 0
257 -252 -333 0
-257 252 -333 0
-257 -252 333 0
258 252 339 0
258 -252 -339 0
-258 252 -339 0
-258 -252 339 0
260 259 339 0
260 -259 -339 0
-260 259 -339 0
-260 -259 339 0
261 259 367 0
261 -259 -367 0
-261 259 -367 0
-261 -259 367 0
262 259 370 0
262 -259 -370 0
-262 259 -370 0
-262 -259 370 0
263 259 377 0
263 -259 -377 0
-263 259 -377 0
-263 -259 377 0
265 264 296 0
265 -264 -296 0
-265 264 -296 0
-265 -264 296 0
266 264 321 0
266 -264 -321 0
-266 264 -321 0
-266 -264 321 0
267 264 328 0
267 -264 -328 0
-267 264 -328 0
-267 -264 328 0
268 264 350 0
268 -264 -350 0
-268 264 -350 0
-268 -264 350 0
269 264 354 0
269 -264 -354 0
-269 264 -354 0
-269 -264 354 0
270 264 377 0
270 -264 -377 0
-270 264 -377 0
-270 -264 377 0
272 271 309 0
272 -271 -309 0
-272 271 -309 0
-272 -271 309 0
273 271 333 0
273 -271 -333 0
-273 271 -333 0
-273 -271 333 0
274 271 375 0
274 -271 -375 0
-274 271 -375 0
-274 -271 375 0
275 271 377 0
275 -271 -377 0
-275 271 -377 0
-275 -271 377 0
277 276 285 0
277 -276 -285 0
-277 276 -285 0
-277 -276 285 0
278 276 309 0
278 -276 -309 0
-278 276 -309 0
-278 -276 309 0
279 276 321 0
279 -276 -321 0
-279 276 -321 0
-279 -276 321 0
280 276 343 0
280 -276 -343 0
-280 276 -343 0
-280 -276 343 0
281 276 350 0
281 -276 -350 0
-281 276 -350 0
-281 -276 350 0
282 276 357 0
282 -276 -357 0
-282 276 -357 0
-282 -276 357 0
283 276 365 0
283 -276 -365 0
-283 276 -365 0
-283 -276 365 0
284 276 370 0
284 -276 -370 0
-284 276 -370 0
-284 -276 370 0
286 285 309 0
286 -285 -309 0
-286 285 -309 0
-286 -285 309 0
287 285 339 0
287 -285 -339 0
-287 285 -339 0
-287 -285 339 0
288 285 350 0
288 -285 -350 0
-288 285 -350 0
-288 -285 350 0
289 285 362 0
289 -285 -362 0
-289 285 -362 0
-289 -285 362 0
290 285 370 0
290 -285 -370 0
-290 285 -370 0
-290 -285 370 0
291 285 378 0
291 -285 -378 0
-291 285 -378 0
-291 -285 378 0
293 292 309 0
293 -292 -309 0
-293 292 -309 0
-293 -292 309 0
294 292 339 0
294 -292 -339 0
-294 292 -339 0
-294 -292 339 0
295 292 367 0
295 -292 -367 0
-295 292 -367 0
-295 -292 367 0
297 296 343 0
297 -296 -343 0
-297 296 -343 0
-297 -296 343 0
298 296 357 0
298 -296 -357 0
-298 296 -357 0
-298 -296 357 0
299 296 360 0
299 -296 -360 0
-299 296 -360 0
-299 -296 360 0
301 300 309 0
301 -300 -309 0
-301 300 -309 0
-301 -300 309 0
302 300 328 0
302 -300 -328 0
-302 300 -328 0
-302 -300 328 0
303 300 333 0
303 -300 -333 0
-303 300 -333 0
-303 -300 333 0
304 300 339 0
304 -300 -339 0
-304 300 -339 0
-304 -300 339 0
305 300 343 0
305 -300 -343 0
-305 300 -343 0
-305 -300 343 0
306 300 346 0
306 -300 -346 0
-306 300 -346 0
-306 -300 346 0
307 300 362 0
307 -300 -362 0
-307 300 -362 0
-307 -300 362 0
308 300 377 0
308 -300 -377 0
-308 300 -377 0
-308 -300 377 0
310 309 321 0
310 -309 -321 0
-310 309 -321 0
-310 -309 321 0
311 309 328 0
311 -309 -328 0
-311 309 -328 0
-311 -309 328 0
312 309 343 0
312 -309 -343 0
-312 309 -343 0
-312 -309 343 0
313 309 346 0
313 -309 -346 0
-313 309 -346 0
-313 -309 346 0
314 309 357 0
314 -309 -357 0
-314 309 -357 0
-314 -309 357 0
315 309 360 0
315 -309 -360 0
-315 309 -360 0
-315 -309 360 0
316 309 362 0
316 -309 -362 0
-316 309 -362 0
-316 -309 362 0
317 309 365 0
317 -309 -365 0
-317 309 -365 0
-317 -309 365 0
318 309 370 0
318 -309 -370 0
-318 309 -370 0
-318 -309 370 0
319 309 373 0
319 -309 -373 0
-319 309 -373 0
-319 -309 373 0
320 309 375 0
320 -309 -375 0
-320 309 -375 0
-320 -309 375 0
322 321 333 0
322 -321 -333 0
-322 321 -333 0
-322 -321 333 0
323 321 339 0
323 -321 -339 0
-323 321 -339 0
-323 -321 339 0
324 321 350 0
324 -321 -350 0
-324 321 -350 0
-324 -321 350 0
325 321 360 0
325 -321 -360 0
-325 321 -360 0
-325 -321 360 0
326 321 365 0
326 -321 -365 0
-326 321 -365 0
-326 -321 365 0
327 321 367 0
327 -321 -367 0
-327 321 -367 0
-327 -321 367 0
329 328 339 0
329 -328 -339 0
-329 328 -339 0
-329 -328 339 0
330 328 362 0
330 -328 -362 0
-330 328 -362 0
-330 -328 362 0
331 328 367 0
331 -328 -367 0
-331 328 -367 0
-331 -328 367 0
332 328 370 0
332 -328 -370 0
-332 328 -370 0
-332 -328 370 0
334 333 350 0
334 -333 -350 0
-334 333 -350 0
-334 -333 350 0
335 333 354 0
335 -333 -354 0
-335 333 -354 0
-335 -333 354 0
336 333 362 0
336 -333 -362 0
-336 333 -362 0
-336 -333 362 0
337 333 365 0
337 -333 -365 0
-337 333 -365 0
-337 -333 365 0
338 333 370 0
338 -333 -370 0
-338 333 -370 0
-338 -333 370 0
340 339 346 0
340 -339 -346 0
-340 339 -346 0
-340 -339 346 0
341 339 357 0
341 -339 -357 0
-341 339 -357 0
-341 -339 357 0
342 339 370 0
342 -339 -370 0
-342 339 -370 0
-342 -339 370 0
344 343 357 0
344 -343 -357 0
-344 343 -357 0
-344 -343 357 0
345 343 365 0
345 -343 -365 0
-345 343 -365 0
-345 -343 365 0
347 346 365 0
347 -346 -365 0
-347 346 -365 0
-347 -346 365 0
348 346 367 0
348 -346 -367 0
-348 346 -367 0
-348 -346 367 0
349 346 370 0
349 -346 -370 0
-349 346 -370 0
-349 -346 370 0
351 350 365 0
351 -350 -365 0
-351 350 -365 0
-351 -350 365 0
352 350 370 0
352 -350 -370 0
-352 350 -370 0
-352 -350 370 0
353 350 373 0
353 -350 -373 0
-353 350 -373 0
-353 -350 373 0
355 354 365 0
355 -354 -365 0
-355 354 -365 0
-355 -354 365 0
356 354 373 0
356 -354 -373 0
-356 354 -373 0
-356 -354 373 0
358 357 360 0
358 -357 -360 0
-358 357 -360 0
-358 -357 360 0
359 357 367 0
359 -357 -367 0
-359 357 -367 0
-359 -357 367 0
361 360 367 0
361 -360 -367 0
-361 360 -367 0
-361 -360 367 0
363 362 373 0
363 -362 -373 0
-363 362 -373 0
-363 -362 373 0
364 362 377 0
364 -362 -377 0
-364 362 -377 0
-364 -362 377 0
366 365 367 0
366 -365 -367 0
-366 365 -367 0
-366 -365 367 0
368 367 370 0
368 -367 -370 0
-368 367 -370 0
-368 -367 370 0
369 367 375 0
369 -367 -375 0
-369 367 -375 0
-369 -367 375 0
371 370 375 0
371 -370 -375 0
-371 370 -375 0
-371 -370 375 0
372 370 377 0
372 -370 -377 0
-372 370 -377 0
-372 -370 377 0
374 373 377 0
374 -373 -377 0
-374 373 -377 0
-374 -373 377 0
376 375 377 0
376 -375 -377 0
-376 375 -377 0
-376 -375 377 0
